50

100 10 311
99 1 350
98 25 299
97 18 380
94 22 347
93 44 346
91 5 295
89 5 400
89 4 395
89 23 295
85 2 337
85 4 352
84 1 366
83 28 318
81 32 281
81 34 354
78 4 364
73 23 361
73 5 357
73 4 340
73 15 239
70 15 213
69 7 330
68 0 298
64 21 206
64 22 379
63 1 397
59 23 390
54 25 198
49 1 148
48 11 323
45 12 287
45 0 238
43 3 170
42 4 242
41 3 341
39 5 344
37 18 211
37 18 139
36 3 313
32 8 390
30 15 232
26 11 230
26 5 366
25 2 220
24 4 347
24 11 95
23 12 192
21 8 81
21 8 226
